(set-info :smt-lib-version 2.6)
(set-logic UFNIA)
(set-info :source |
Generated by: Geoff Sutcliffe
Generated on: 2026-03-11
Generator: TPTPWorld
Application: Benchmarking automated theorem provers
Time limit: 120.0

These benchmarks are translations from the TPTP Library (Thousands of
Problems for Theorem Provers), see http://www.cs.miami.edu/~tptp/

The TPTP is maintained by Geoff Sutcliffe, and he contributed this
selection of benchmarks to SMT-LIB.  They were exported from the
v9.2.1 realease of TPTP.
|)
(set-info :category "industrial")
(set-info :status unknown)
; SZS status Success
(declare-sort $$unsorted 0)
(declare-sort tptp.uni 0)
(declare-sort tptp.ty 0)
(declare-fun tptp.sort1 (tptp.ty tptp.uni) Bool)
(declare-fun tptp.witness1 (tptp.ty) tptp.uni)
(assert (forall ((A tptp.ty)) (tptp.sort1 A (tptp.witness1 A))))
(declare-fun tptp.int () tptp.ty)
(declare-fun tptp.real () tptp.ty)
(declare-sort tptp.bool1 0)
(declare-fun tptp.bool () tptp.ty)
(declare-fun tptp.true1 () tptp.bool1)
(declare-fun tptp.false1 () tptp.bool1)
(declare-fun tptp.match_bool1 (tptp.ty tptp.bool1 tptp.uni tptp.uni) tptp.uni)
(assert (forall ((A tptp.ty) (X tptp.bool1) (X1 tptp.uni) (X2 tptp.uni)) (tptp.sort1 A (tptp.match_bool1 A X X1 X2))))
(assert (forall ((A tptp.ty) (Z tptp.uni) (Z1 tptp.uni)) (=> (tptp.sort1 A Z) (= (tptp.match_bool1 A tptp.true1 Z Z1) Z))))
(assert (forall ((A tptp.ty) (Z tptp.uni) (Z1 tptp.uni)) (=> (tptp.sort1 A Z1) (= (tptp.match_bool1 A tptp.false1 Z Z1) Z1))))
(assert (not (= tptp.true1 tptp.false1)))
(assert (forall ((U tptp.bool1)) (or (= U tptp.true1) (= U tptp.false1))))
(declare-sort tptp.tuple02 0)
(declare-fun tptp.tuple0 () tptp.ty)
(declare-fun tptp.tuple03 () tptp.tuple02)
(assert (forall ((U tptp.tuple02)) (= U tptp.tuple03)))
(declare-fun tptp.qtmark () tptp.ty)
(assert (forall ((X Int) (Y Int) (Z Int)) (=> (<= X Y) (=> (<= 0 Z) (<= (* X Z) (* Y Z))))))
(declare-sort tptp.t1 0)
(declare-fun tptp.t () tptp.ty)
(declare-fun tptp.f1 (tptp.t1) tptp.t1)
(declare-fun tptp.x01 () tptp.t1)
(declare-fun tptp.iter1 (Int tptp.t1) tptp.t1)
(assert (forall ((X tptp.t1)) (= (tptp.iter1 0 X) X)))
(assert (forall ((K Int) (X tptp.t1)) (=> (< 0 K) (= (tptp.iter1 K X) (tptp.iter1 (- K 1) (tptp.f1 X))))))
(assert (forall ((X tptp.t1)) (= (tptp.iter1 1 X) (tptp.f1 X))))
(assert (forall ((K Int) (X tptp.t1)) (=> (< 0 K) (= (tptp.iter1 K X) (tptp.f1 (tptp.iter1 (- K 1) X))))))
(declare-fun tptp.mu1 () Int)
(declare-fun tptp.lambda1 () Int)
(assert (<= 0 tptp.mu1))
(assert (<= 1 tptp.lambda1))
(assert (forall ((I Int) (J Int)) (let ((_let_1 (+ tptp.mu1 tptp.lambda1))) (=> (and (<= 0 I) (< I _let_1)) (=> (and (<= 0 J) (< J _let_1)) (=> (not (= I J)) (not (= (tptp.iter1 I tptp.x01) (tptp.iter1 J tptp.x01)))))))))
(assert (forall ((N Int)) (=> (<= tptp.mu1 N) (= (tptp.iter1 (+ N tptp.lambda1) tptp.x01) (tptp.iter1 N tptp.x01)))))
(assert (forall ((N Int)) (=> (<= tptp.mu1 N) (forall ((K Int)) (=> (<= 0 K) (= (tptp.iter1 (+ N (* tptp.lambda1 K)) tptp.x01) (tptp.iter1 N tptp.x01)))))))
(declare-fun tptp.ref (tptp.ty) tptp.ty)
(declare-fun tptp.mk_ref (tptp.ty tptp.uni) tptp.uni)
(assert (forall ((A tptp.ty) (X tptp.uni)) (tptp.sort1 (tptp.ref A) (tptp.mk_ref A X))))
(declare-fun tptp.contents (tptp.ty tptp.uni) tptp.uni)
(assert (forall ((A tptp.ty) (X tptp.uni)) (tptp.sort1 A (tptp.contents A X))))
(assert (forall ((A tptp.ty) (U tptp.uni)) (=> (tptp.sort1 A U) (= (tptp.contents A (tptp.mk_ref A U)) U))))
(assert (forall ((A tptp.ty) (U tptp.uni)) (=> (tptp.sort1 (tptp.ref A) U) (= U (tptp.mk_ref A (tptp.contents A U))))))
(declare-fun tptp.dist1 (Int Int) Int)
(assert (forall ((I Int) (J Int)) (let ((_let_1 (tptp.dist1 I J))) (=> (<= tptp.mu1 I) (=> (<= tptp.mu1 J) (and (<= 0 _let_1) (= (tptp.iter1 (+ I _let_1) tptp.x01) (tptp.iter1 J tptp.x01)) (forall ((K Int)) (=> (<= 0 K) (=> (= (tptp.iter1 (+ I K) tptp.x01) (tptp.iter1 J tptp.x01)) (<= (tptp.dist1 I J) K))))))))))
(declare-fun tptp.rel1 (tptp.t1 tptp.t1) Bool)
(assert (forall ((T2 tptp.t1) (T1 tptp.t1)) (= (tptp.rel1 T2 T1) (exists ((I Int)) (let ((_let_1 (* 2 I))) (let ((_let_2 (+ I 1))) (and (= T1 (tptp.iter1 I tptp.x01)) (= T2 (tptp.iter1 _let_2 tptp.x01)) (<= 1 I) (<= I (+ tptp.mu1 tptp.lambda1)) (=> (<= tptp.mu1 I) (< (tptp.dist1 (+ _let_1 2) _let_2) (tptp.dist1 _let_1 I))))))))))
(assert (not (exists ((T Int)) (let ((_let_1 (tptp.f1 tptp.x01))) (and (<= 1 T) (<= T (+ tptp.mu1 tptp.lambda1)) (= _let_1 (tptp.iter1 T tptp.x01)) (= (tptp.f1 _let_1) (tptp.iter1 (* 2 T) tptp.x01)) (forall ((I Int)) (=> (and (<= 1 I) (< I T)) (not (= (tptp.iter1 I tptp.x01) (tptp.iter1 (* 2 I) tptp.x01))))))))))
(check-sat)
(exit)
